<number of tasks>
50

<cycle time>
1000

<order strength>
0.902


<task times>
1 304
2 148
3 34
4 99
5 47
6 136
7 143
8 72
9 115
10 201
11 30
12 121
13 120
14 57
15 35
16 61
17 128
18 164
19 63
20 115
21 194
22 107
23 88
24 348
25 71
26 49
27 71
28 71
29 322
30 117
31 317
32 63
33 26
34 32
35 222
36 210
37 82
38 113
39 59
40 52
41 45
42 164
43 82
44 134
45 166
46 149
47 135
48 48
49 70
50 117

<precedence relations>
1,4
1,5
1,6
2,4
2,5
2,6
3,4
3,5
3,6
4,7
5,7
6,7
7,8
7,9
7,10
8,11
8,12
8,13
9,11
9,12
9,13
10,11
10,12
10,13
11,14
11,15
12,14
12,15
13,14
13,15
14,16
14,17
14,18
15,16
15,17
15,18
16,19
16,20
16,21
17,19
17,20
17,21
18,19
18,20
18,21
19,22
19,23
20,22
20,23
21,22
22,24
22,25
23,24
23,25
24,26
24,27
24,28
25,29
25,30
25,31
26,29
26,30
26,31
27,29
28,29
28,32
28,33
29,38
30,32
30,33
31,32
31,33
32,34
32,35
32,36
33,34
33,35
33,36
33,37
34,38
34,39
34,40
35,38
36,40
36,44
37,38
37,42
38,43
38,44
38,45
39,42
39,46
40,41
40,45
42,45
42,47
44,46
44,47
45,48
45,49
45,50
46,48

<end>
